
===== New CPLEX run =====
Instance: /home/yorig/tuner/mpils-tests/instances/miplib/easy/mas74.mps
Config: /scratch/yorig/mpils-results-grid-ticks-10000-divide/easy/16proc/seed-4/5_mas74_seed-4_20260429_043455/expansion/config_param_CPXPARAM_Simplex_DGradient_5_iter_3.prm
========================

Selected objective sense:  MINIMIZE
Selected objective  name:  obj
Selected RHS        name:  rhs
Selected bound      name:  bnd
Version identifier: 22.1.2.0 | 2024-11-26 | 0edbb82fd
CPXPARAM_Simplex_DGradient                       5
CPXPARAM_Threads                                 8
CPXPARAM_Parallel                                1
CPXPARAM_MIP_Cuts_Cliques                        1
CPXPARAM_MIP_Cuts_Covers                         -1
CPXPARAM_MIP_Strategy_PresolveNode               -1
CPXPARAM_MIP_Cuts_FlowCovers                     -1
CPXPARAM_MIP_Cuts_Implied                        -1
CPXPARAM_MIP_Cuts_GUBCovers                      -1
CPXPARAM_MIP_Limits_GomoryCand                   10
CPXPARAM_MIP_Cuts_Gomory                         2
CPXPARAM_MIP_Cuts_PathCut                        2
CPXPARAM_MIP_Cuts_MIRCut                         -1
CPXPARAM_MIP_Cuts_Disjunctive                    2
CPXPARAM_Emphasis_MIP                            3
CPXPARAM_MIP_Strategy_RINSHeur                   20
CPXPARAM_DetTimeLimit                            10000
CPXPARAM_MIP_Limits_CutsFactor                   1
Found incumbent of value 157344.610330 after 0.00 sec. (0.02 ticks)
Tried aggregator 1 time.
MIP Presolve eliminated 0 rows and 3 columns.
Reduced MIP has 13 rows, 148 columns, and 1682 nonzeros.
Reduced MIP has 145 binaries, 2 generals, 0 SOSs, and 0 indicators.
Presolve time = 0.00 sec. (0.84 ticks)
Probing time = 0.00 sec. (0.09 ticks)
Tried aggregator 1 time.
Detecting symmetries...
Reduced MIP has 13 rows, 148 columns, and 1682 nonzeros.
Reduced MIP has 145 binaries, 2 generals, 0 SOSs, and 0 indicators.
Presolve time = 0.00 sec. (0.79 ticks)
Probing time = 0.00 sec. (0.09 ticks)
MIP emphasis: best bound.
MIP search method: dynamic search.
Parallel mode: deterministic, using up to 8 threads.
Root relaxation solution time = 0.01 sec. (0.65 ticks)

        Nodes                                         Cuts/
   Node  Left     Objective  IInf  Best Integer    Best Bound    ItCnt     Gap

*     0+    0                       157344.6103        0.0000           100.00%
*     0+    0                        51840.4943        0.0000           100.00%
      0     0    10482.7953    12    51840.4943    10482.7953       36   79.78%
*     0+    0                        19197.4680    10482.7953            45.39%
*     0+    0                        15240.3317    10482.7953            31.22%
*     0+    0                        14372.8713    10482.7953            27.07%
*     0+    0                        13174.3215    10513.0180            20.20%
Detecting symmetries...
      0     2    10482.7953    12    13174.3215    10534.0211       36   20.04%
Elapsed time = 0.50 sec. (10.94 ticks, tree = 0.02 MB, solutions = 6)
*    10+    7                        12915.1000    10534.0211            18.44%
*    40+   33                        12759.1000    10534.0211            17.44%
*   183+   73                        12715.8924    10542.8535            17.09%
*   200+   73                        12605.8924    10542.8535            16.37%
*   220+  114                        12180.1000    10542.8535            13.44%

Performing restart 1

Repeating presolve.
Tried aggregator 1 time.
MIP Presolve eliminated 0 rows and 42 columns.
Reduced MIP has 13 rows, 106 columns, and 1144 nonzeros.
Reduced MIP has 104 binaries, 1 generals, 0 SOSs, and 0 indicators.
Presolve time = 0.00 sec. (0.41 ticks)
Tried aggregator 1 time.
Reduced MIP has 13 rows, 106 columns, and 1144 nonzeros.
Reduced MIP has 104 binaries, 1 generals, 0 SOSs, and 0 indicators.
Presolve time = 0.00 sec. (0.52 ticks)
Represolve time = 0.00 sec. (1.30 ticks)
*  3342+  121                        12102.2561    10726.6996            11.37%
   3512   195    10800.7915    12    12102.2561    10726.6996    20058   11.37%
*  3712+  407                        12062.5589    10726.6996            11.07%
*  4352+  867                        11985.1775    10775.9411            10.09%
   7863  3583    10974.7675    12    11985.1775    10862.5362    42165    9.37%
* 17200+12310                        11891.2631    10991.0407             7.57%
* 17963+13417                        11801.1857    10993.2227             6.85%
  30792 24463    11321.3807    12    11801.1857    11079.1221   183074    6.12%
  47153 40804    11203.8752    12    11801.1857    11104.1645   295964    5.91%
  61156 53598    11205.9942    12    11801.1857    11104.1645   386837    5.91%
  75449 65616    11333.2180    11    11801.1857    11104.1645   474125    5.91%
  89962 78256    11431.6293    11    11801.1857    11104.1645   565344    5.91%

Performing restart 2

Repeating presolve.
Tried aggregator 1 time.
MIP Presolve eliminated 0 rows and 9 columns.
Reduced MIP has 13 rows, 97 columns, and 1030 nonzeros.
Reduced MIP has 95 binaries, 1 generals, 0 SOSs, and 0 indicators.
Presolve time = 0.00 sec. (0.34 ticks)
Tried aggregator 1 time.
Reduced MIP has 13 rows, 97 columns, and 1030 nonzeros.
Reduced MIP has 95 binaries, 1 generals, 0 SOSs, and 0 indicators.
Presolve time = 0.00 sec. (0.46 ticks)
Represolve time = 0.03 sec. (3.18 ticks)
 101105    63    10637.9029    12    11801.1857    11178.3937   638482    5.28%
 112754 10446    11087.3136    12    11801.1857    11178.3937   707182    5.28%
 231511 112868    11357.9658    12    11801.1857    11311.3953  1436139    4.15%
Elapsed time = 17.07 sec. (3113.85 ticks, tree = 24.42 MB, solutions = 28)
 364640 214455    11543.9300     9    11801.1857    11408.0941  2226559    3.33%
 495813 300436    11499.5259    12    11801.1857    11467.8239  2973946    2.82%
 631320 377740    11646.7294    12    11801.1857    11514.6759  3737948    2.43%
 783681 449746    11773.9394     9    11801.1857    11557.2801  4574111    2.07%
 951905 510709    11675.2805    10    11801.1857    11596.4853  5460749    1.73%
 1129296 550375    11736.2608    12    11801.1857    11631.3426  6349679    1.44%
 1309708 560652        cutoff          11801.1857    11661.8223  7204467    1.18%

Clique cuts applied:  0
Flow path cuts applied:  0
Gomory fractional cuts applied:  0
Disjunctive cuts applied:  0
Cone linearizations applied:  0

Root node processing (before b&c):
  Real time             =    0.42 sec. (10.91 ticks)
Parallel b&c, 8 threads:
  Real time             =   66.47 sec. (9990.32 ticks)
  Sync time (average)   =   42.70 sec.
  Wait time (average)   =    1.03 sec.
                          ------------
Total (root+branch&cut) =   66.88 sec. (10001.24 ticks)
Gap: 1.12%
Upper bound: 11801.2
Lower bound: 11668.9
End of CPLEX run. Time: 66.9319 seconds
